*SPEF "ieee 1481-1999"
*DESIGN "counter4sync"
*DATE "02:48:12 Sunday July 26, 2026"
*VENDOR "The OpenROAD Project"
*PROGRAM "OpenROAD"
*VERSION "bazel-nostamp"
*DESIGN_FLOW "NAME_SCOPE LOCAL" "PIN_CAP NONE"
*DIVIDER /
*DELIMITER :
*BUS_DELIMITER []
*T_UNIT 1 NS
*C_UNIT 1 PF
*R_UNIT 1 OHM
*L_UNIT 1 HENRY

*NAME_MAP
*1 _00_
*2 _01_
*3 _02_
*4 _03_
*5 _04_
*6 _05_
*7 _06_
*8 _07_
*9 _08_
*10 _09_
*11 _10_
*12 _11_[0]
*13 _12_
*14 _13_
*15 _14_
*16 clk
*25 clknet_0_clk
*26 clknet_1_0__leaf_clk
*27 clknet_1_1__leaf_clk
*17 count[0]
*18 count[1]
*19 count[2]
*20 count[3]
*21 en
*22 rst
*94 FILLER_0_1
*100 FILLER_0_123
*101 FILLER_0_155
*102 FILLER_0_171
*103 FILLER_0_179
*104 FILLER_0_181
*95 FILLER_0_33
*96 FILLER_0_65
*97 FILLER_0_81
*98 FILLER_0_85
*99 FILLER_0_91
*202 FILLER_10_1
*206 FILLER_10_129
*207 FILLER_10_161
*208 FILLER_10_177
*209 FILLER_10_181
*203 FILLER_10_33
*204 FILLER_10_65
*205 FILLER_10_97
*210 FILLER_11_1
*214 FILLER_11_129
*215 FILLER_11_161
*216 FILLER_11_177
*217 FILLER_11_181
*211 FILLER_11_33
*212 FILLER_11_65
*213 FILLER_11_97
*218 FILLER_12_1
*222 FILLER_12_129
*223 FILLER_12_161
*224 FILLER_12_177
*225 FILLER_12_181
*219 FILLER_12_33
*220 FILLER_12_65
*221 FILLER_12_97
*226 FILLER_13_1
*230 FILLER_13_129
*231 FILLER_13_161
*232 FILLER_13_177
*233 FILLER_13_181
*227 FILLER_13_33
*228 FILLER_13_65
*229 FILLER_13_97
*234 FILLER_14_1
*238 FILLER_14_129
*239 FILLER_14_161
*240 FILLER_14_177
*241 FILLER_14_181
*235 FILLER_14_33
*236 FILLER_14_65
*237 FILLER_14_97
*242 FILLER_15_1
*246 FILLER_15_129
*247 FILLER_15_161
*248 FILLER_15_177
*249 FILLER_15_181
*243 FILLER_15_33
*244 FILLER_15_65
*245 FILLER_15_97
*250 FILLER_16_1
*254 FILLER_16_129
*255 FILLER_16_161
*256 FILLER_16_177
*257 FILLER_16_181
*251 FILLER_16_33
*252 FILLER_16_65
*253 FILLER_16_97
*258 FILLER_17_1
*262 FILLER_17_129
*263 FILLER_17_161
*264 FILLER_17_177
*265 FILLER_17_181
*259 FILLER_17_33
*260 FILLER_17_65
*261 FILLER_17_97
*266 FILLER_18_1
*270 FILLER_18_129
*271 FILLER_18_161
*272 FILLER_18_177
*273 FILLER_18_181
*267 FILLER_18_33
*268 FILLER_18_65
*269 FILLER_18_97
*274 FILLER_19_1
*278 FILLER_19_129
*279 FILLER_19_161
*280 FILLER_19_177
*281 FILLER_19_181
*275 FILLER_19_33
*276 FILLER_19_65
*277 FILLER_19_97
*105 FILLER_1_1
*111 FILLER_1_124
*112 FILLER_1_156
*113 FILLER_1_172
*114 FILLER_1_180
*106 FILLER_1_33
*107 FILLER_1_65
*108 FILLER_1_81
*109 FILLER_1_85
*110 FILLER_1_92
*282 FILLER_20_1
*286 FILLER_20_129
*287 FILLER_20_161
*288 FILLER_20_177
*289 FILLER_20_181
*283 FILLER_20_33
*284 FILLER_20_65
*285 FILLER_20_97
*290 FILLER_21_1
*294 FILLER_21_129
*295 FILLER_21_161
*296 FILLER_21_177
*297 FILLER_21_181
*291 FILLER_21_33
*292 FILLER_21_65
*293 FILLER_21_97
*298 FILLER_22_1
*302 FILLER_22_129
*303 FILLER_22_161
*304 FILLER_22_177
*305 FILLER_22_181
*299 FILLER_22_33
*300 FILLER_22_65
*301 FILLER_22_97
*306 FILLER_23_1
*310 FILLER_23_129
*311 FILLER_23_161
*312 FILLER_23_177
*313 FILLER_23_181
*307 FILLER_23_33
*308 FILLER_23_65
*309 FILLER_23_97
*115 FILLER_2_1
*122 FILLER_2_125
*123 FILLER_2_157
*124 FILLER_2_173
*125 FILLER_2_181
*116 FILLER_2_33
*117 FILLER_2_49
*118 FILLER_2_56
*119 FILLER_2_66
*120 FILLER_2_82
*121 FILLER_2_93
*126 FILLER_3_1
*133 FILLER_3_102
*134 FILLER_3_134
*135 FILLER_3_166
*127 FILLER_3_33
*128 FILLER_3_41
*129 FILLER_3_62
*130 FILLER_3_78
*131 FILLER_3_82
*132 FILLER_3_84
*136 FILLER_4_1
*145 FILLER_4_124
*146 FILLER_4_156
*147 FILLER_4_172
*148 FILLER_4_180
*137 FILLER_4_33
*138 FILLER_4_49
*139 FILLER_4_56
*140 FILLER_4_72
*141 FILLER_4_80
*142 FILLER_4_84
*143 FILLER_4_86
*144 FILLER_4_92
*149 FILLER_5_1
*161 FILLER_5_106
*162 FILLER_5_108
*163 FILLER_5_116
*164 FILLER_5_148
*165 FILLER_5_180
*150 FILLER_5_33
*151 FILLER_5_42
*152 FILLER_5_50
*153 FILLER_5_54
*154 FILLER_5_59
*155 FILLER_5_67
*156 FILLER_5_71
*157 FILLER_5_79
*158 FILLER_5_83
*159 FILLER_5_85
*160 FILLER_5_90
*166 FILLER_6_1
*171 FILLER_6_101
*172 FILLER_6_133
*173 FILLER_6_165
*174 FILLER_6_181
*167 FILLER_6_33
*168 FILLER_6_41
*169 FILLER_6_60
*170 FILLER_6_76
*175 FILLER_7_1
*181 FILLER_7_123
*182 FILLER_7_155
*183 FILLER_7_171
*184 FILLER_7_179
*185 FILLER_7_181
*176 FILLER_7_33
*177 FILLER_7_65
*178 FILLER_7_81
*179 FILLER_7_85
*180 FILLER_7_91
*186 FILLER_8_1
*190 FILLER_8_129
*191 FILLER_8_161
*192 FILLER_8_177
*193 FILLER_8_181
*187 FILLER_8_33
*188 FILLER_8_65
*189 FILLER_8_97
*194 FILLER_9_1
*198 FILLER_9_129
*199 FILLER_9_161
*200 FILLER_9_177
*201 FILLER_9_181
*195 FILLER_9_33
*196 FILLER_9_65
*197 FILLER_9_97
*67 PHY_EDGE_ROW_0_Left_24
*43 PHY_EDGE_ROW_0_Right_0
*77 PHY_EDGE_ROW_10_Left_34
*53 PHY_EDGE_ROW_10_Right_10
*78 PHY_EDGE_ROW_11_Left_35
*54 PHY_EDGE_ROW_11_Right_11
*79 PHY_EDGE_ROW_12_Left_36
*55 PHY_EDGE_ROW_12_Right_12
*80 PHY_EDGE_ROW_13_Left_37
*56 PHY_EDGE_ROW_13_Right_13
*81 PHY_EDGE_ROW_14_Left_38
*57 PHY_EDGE_ROW_14_Right_14
*82 PHY_EDGE_ROW_15_Left_39
*58 PHY_EDGE_ROW_15_Right_15
*83 PHY_EDGE_ROW_16_Left_40
*59 PHY_EDGE_ROW_16_Right_16
*84 PHY_EDGE_ROW_17_Left_41
*60 PHY_EDGE_ROW_17_Right_17
*85 PHY_EDGE_ROW_18_Left_42
*61 PHY_EDGE_ROW_18_Right_18
*86 PHY_EDGE_ROW_19_Left_43
*62 PHY_EDGE_ROW_19_Right_19
*68 PHY_EDGE_ROW_1_Left_25
*44 PHY_EDGE_ROW_1_Right_1
*87 PHY_EDGE_ROW_20_Left_44
*63 PHY_EDGE_ROW_20_Right_20
*88 PHY_EDGE_ROW_21_Left_45
*64 PHY_EDGE_ROW_21_Right_21
*89 PHY_EDGE_ROW_22_Left_46
*65 PHY_EDGE_ROW_22_Right_22
*90 PHY_EDGE_ROW_23_Left_47
*66 PHY_EDGE_ROW_23_Right_23
*69 PHY_EDGE_ROW_2_Left_26
*45 PHY_EDGE_ROW_2_Right_2
*70 PHY_EDGE_ROW_3_Left_27
*46 PHY_EDGE_ROW_3_Right_3
*71 PHY_EDGE_ROW_4_Left_28
*47 PHY_EDGE_ROW_4_Right_4
*72 PHY_EDGE_ROW_5_Left_29
*48 PHY_EDGE_ROW_5_Right_5
*73 PHY_EDGE_ROW_6_Left_30
*49 PHY_EDGE_ROW_6_Right_6
*74 PHY_EDGE_ROW_7_Left_31
*50 PHY_EDGE_ROW_7_Right_7
*75 PHY_EDGE_ROW_8_Left_32
*51 PHY_EDGE_ROW_8_Right_8
*76 PHY_EDGE_ROW_9_Left_33
*52 PHY_EDGE_ROW_9_Right_9
*28 _15_
*29 _16_
*30 _17_
*31 _18_
*32 _19_
*33 _20_
*34 _21_
*35 _22_
*36 _23_
*37 _24_
*38 _25_
*39 _26_
*40 _27_
*41 _28_
*42 _29_
*91 clkbuf_0_clk
*92 clkbuf_1_0__f_clk
*93 clkbuf_1_1__f_clk

*PORTS
clk I
count[0] O
count[1] O
count[2] O
count[3] O
en I
rst I

*D_NET *1 0.000350214
*CONN
*I *39:D I *D DFF_X1
*I *30:ZN O *D AOI211_X1
*CAP
1 *39:D 0.000100666
2 *30:ZN 0.000100666
3 *39:D *28:A 3.83757e-05
4 *39:D *29:A2 0
5 *39:D *30:C2 1.1025e-05
6 *39:D *39:CK 5.71984e-05
7 *39:D *42:D 0
8 *39:D *42:CK 3.35796e-05
9 *39:D *25:13 8.70312e-06
*RES
1 *30:ZN *39:D 33.3929 
*END

*D_NET *2 0.000151657
*CONN
*I *40:D I *D DFF_X1
*I *33:ZN O *D NOR3_X1
*CAP
1 *40:D 4.24224e-05
2 *33:ZN 4.24224e-05
3 *40:D *33:A2 1.6177e-05
4 *40:D *33:A3 5.06354e-05
*RES
1 *33:ZN *40:D 16.3571 
*END

*D_NET *3 0.000168218
*CONN
*I *42:D I *D DFF_X1
*I *36:ZN O *D NOR2_X1
*CAP
1 *42:D 7.73458e-05
2 *36:ZN 7.73458e-05
3 *42:D *30:A 1.07733e-05
4 *42:D *42:CK 2.75346e-06
5 *39:D *42:D 0
*RES
1 *36:ZN *42:D 18.6429 
*END

*D_NET *4 0.000453452
*CONN
*I *41:D I *D DFF_X1
*I *38:ZN O *D NOR3_X1
*CAP
1 *41:D 9.29849e-05
2 *38:ZN 9.29849e-05
3 *41:D count[1] 4.31143e-05
4 *41:D *34:A4 0.000111576
5 *41:D *37:A2 6.11168e-05
6 *41:D *38:A3 4.4596e-05
7 *41:D *9:12 7.07966e-06
*RES
1 *38:ZN *41:D 25.9286 
*END

*D_NET *5 0.000125684
*CONN
*I *30:C2 I *D AOI211_X1
*I *28:ZN O *D INV_X1
*CAP
1 *30:C2 4.98665e-05
2 *28:ZN 4.98665e-05
3 *30:C2 *29:A2 1.35664e-06
4 *30:C2 *30:B 4.95466e-06
5 *30:C2 *30:C1 1.88334e-06
6 *30:C2 *42:CK 6.73126e-06
7 *39:D *30:C2 1.1025e-05
*RES
1 *28:ZN *30:C2 25.8571 
*END

*D_NET *6 0.000174433
*CONN
*I *30:B I *D AOI211_X1
*I *29:ZN O *D NOR2_X1
*CAP
1 *30:B 5.29491e-05
2 *29:ZN 5.29491e-05
3 *30:B *29:A1 4.05153e-05
4 *30:B *29:A2 1.81144e-05
5 *30:B *30:A 2.39679e-06
6 *30:B *42:CK 2.55331e-06
7 *30:C2 *30:B 4.95466e-06
*RES
1 *29:ZN *30:B 17.2857 
*END

*D_NET *7 0.000615809
*CONN
*I *33:A2 I *D NOR3_X1
*I *37:A2 I *D NOR2_X1
*I *31:ZN O *D AND3_X1
*CAP
1 *33:A2 0.000138444
2 *37:A2 7.42574e-05
3 *31:ZN 0.000212701
4 *33:A2 *32:B1 8.71426e-06
5 *33:A2 *33:A3 6.58343e-06
6 *33:A2 *40:CK 3.89107e-05
7 *33:A2 *41:CK 2.01083e-05
8 *33:A2 *17:35 3.4682e-06
9 *33:A2 *18:12 1.53342e-05
10 *37:A2 *34:A4 1.28019e-05
11 *37:A2 *41:CK 7.19234e-06
12 *40:D *33:A2 1.6177e-05
13 *41:D *37:A2 6.11168e-05
*RES
1 *31:ZN *37:A2 19.6786 
2 *31:ZN *33:A2 28.2857 
*END

*D_NET *8 0.000222714
*CONN
*I *33:A3 I *D NOR3_X1
*I *32:ZN O *D AOI21_X1
*CAP
1 *33:A3 7.74211e-05
2 *32:ZN 7.74211e-05
3 *33:A3 *32:B1 6.38328e-07
4 *33:A3 *18:12 9.14865e-06
5 *33:A3 *18:24 8.66302e-07
6 *33:A2 *33:A3 6.58343e-06
7 *40:D *33:A3 5.06354e-05
*RES
1 *32:ZN *33:A3 19.6786 
*END

*D_NET *9 0.00100477
*CONN
*I *35:B I *D XNOR2_X1
*I *38:A2 I *D NOR3_X1
*I *34:ZN O *D AND4_X1
*CAP
1 *35:B 0.000208825
2 *38:A2 6.87197e-06
3 *34:ZN 4.02849e-05
4 *9:12 0.000255982
5 *35:B *34:A2 0
6 *35:B *36:A2 1.32348e-05
7 *35:B *20:6 1.85634e-05
8 *35:B *20:18 1.32348e-05
9 *35:B *21:11 9.45221e-05
10 *35:B *22:9 0.000274221
11 *35:B *22:43 0
12 *38:A2 count[1] 6.48216e-07
13 *38:A2 *38:A3 7.19036e-06
14 *9:12 count[1] 2.02836e-05
15 *9:12 *38:A3 4.38246e-05
16 *9:12 *22:9 0
17 *41:D *9:12 7.07966e-06
*RES
1 *34:ZN *9:12 20.5357 
2 *9:12 *38:A2 5.75 
3 *9:12 *35:B 43.6429 
*END

*D_NET *10 0.000196814
*CONN
*I *36:A2 I *D NOR2_X1
*I *35:ZN O *D XNOR2_X1
*CAP
1 *36:A2 7.21843e-05
2 *35:ZN 7.21843e-05
3 *36:A2 *20:6 2.43548e-06
4 *36:A2 *20:18 4.93355e-06
5 *36:A2 *21:11 1.87418e-05
6 *36:A2 *22:43 1.30998e-05
7 *35:B *36:A2 1.32348e-05
*RES
1 *35:ZN *36:A2 28.7857 
*END

*D_NET *11 0.000339744
*CONN
*I *38:A3 I *D NOR3_X1
*I *37:ZN O *D NOR2_X1
*CAP
1 *38:A3 9.36802e-05
2 *37:ZN 9.36802e-05
3 *38:A3 count[1] 5.86275e-06
4 *38:A3 count[2] 4.93896e-05
5 *38:A3 *34:A2 1.52083e-06
6 *38:A2 *38:A3 7.19036e-06
7 *41:D *38:A3 4.4596e-05
8 *9:12 *38:A3 4.38246e-05
*RES
1 *37:ZN *38:A3 31.9643 
*END

*D_NET *12 0.0001674
*CONN
*I *28:A I *D INV_X1
*I *39:QN O *D DFF_X1
*CAP
1 *28:A 6.4193e-05
2 *39:QN 6.4193e-05
3 *28:A *29:A2 6.38328e-07
4 *28:A *17:8 0
5 *39:D *28:A 3.83757e-05
*RES
1 *39:QN *28:A 17.3929 
*END

*D_NET *16 0.00107775
*CONN
*P clk I
*I *91:A I *D BUF_X4
*CAP
1 clk 0.000464576
2 *91:A 0
3 *16:32 3.96483e-05
4 *16:28 0.000504224
5 *16:28 *21:11 2.23415e-06
6 *16:32 *17:21 3.97498e-06
7 *16:32 *17:33 1.61966e-05
8 *16:32 *25:13 4.68999e-05
*RES
1 clk *16:28 45.9329 
2 *16:28 *16:32 11.4286 
3 *16:32 *91:A 10 
*END

*D_NET *25 0.00137318
*CONN
*I *93:A I *D BUF_X4
*I *92:A I *D BUF_X4
*I *91:Z O *D BUF_X4
*CAP
1 *93:A 0
2 *92:A 1.27973e-05
3 *91:Z 0
4 *25:53 0.000382655
5 *25:13 0.000255711
6 *25:11 0.000633003
7 *25:6 7.43461e-06
8 *25:13 *26:10 2.29838e-05
9 *25:53 *27:8 2.99104e-06
10 *33:A1 *25:53 0
11 *39:D *25:13 8.70312e-06
12 *16:32 *25:13 4.68999e-05
13 *17:21 *25:13 0
*RES
1 *91:Z *25:6 10 
2 *25:6 *25:11 0.821429 
3 *25:11 *25:13 28.1786 
4 *25:13 *92:A 11.25 
5 *25:11 *25:53 33.4857 
6 *25:53 *93:A 10 
*END

*D_NET *26 0.00056058
*CONN
*I *39:CK I *D DFF_X1
*I *42:CK I *D DFF_X1
*I *92:Z O *D BUF_X4
*CAP
1 *39:CK 5.90664e-05
2 *42:CK 9.57192e-05
3 *92:Z 5.38973e-05
4 *26:10 0.000208683
5 *30:A *42:CK 1.58933e-05
6 *30:B *42:CK 2.55331e-06
7 *30:C1 *42:CK 1.52083e-06
8 *30:C2 *42:CK 6.73126e-06
9 *39:D *39:CK 5.71984e-05
10 *39:D *42:CK 3.35796e-05
11 *42:D *42:CK 2.75346e-06
12 *25:13 *26:10 2.29838e-05
*RES
1 *92:Z *26:10 22.0357 
2 *26:10 *42:CK 26.2857 
3 *26:10 *39:CK 12.1786 
*END

*D_NET *27 0.000596488
*CONN
*I *41:CK I *D DFF_X1
*I *40:CK I *D DFF_X1
*I *93:Z O *D BUF_X4
*CAP
1 *41:CK 9.72858e-05
2 *40:CK 4.01146e-05
3 *93:Z 0.000112927
4 *27:8 0.000250328
5 *33:A2 *40:CK 3.89107e-05
6 *33:A2 *41:CK 2.01083e-05
7 *34:A4 *41:CK 3.19164e-06
8 *37:A2 *41:CK 7.19234e-06
9 *17:35 *41:CK 5.10662e-06
10 *18:12 *40:CK 2.13573e-06
11 *18:12 *27:8 1.61965e-05
12 *25:53 *27:8 2.99104e-06
*RES
1 *93:Z *27:8 23.1429 
2 *27:8 *40:CK 14.6786 
3 *27:8 *41:CK 21.25 
*END

*D_NET *17 0.00233675
*CONN
*P count[0] O
*I *32:B1 I *D AOI21_X1
*I *31:A3 I *D AND3_X1
*I *34:A4 I *D AND4_X1
*I *29:A2 I *D NOR2_X1
*I *39:Q O *D DFF_X1
*CAP
1 count[0] 0.000307021
2 *32:B1 2.18235e-05
3 *31:A3 0
4 *34:A4 9.35094e-05
5 *29:A2 4.75243e-05
6 *39:Q 5.73342e-05
7 *17:35 0.00011468
8 *17:33 0.000183707
9 *17:23 0.000307021
10 *17:21 0.000183478
11 *17:8 0.000147623
12 count[0] *29:A1 0
13 count[0] *21:11 0.000263018
14 count[0] *22:5 0.000106568
15 count[0] *22:43 3.22582e-05
16 *29:A2 *29:A1 4.87096e-06
17 *29:A2 *30:C1 1.62643e-06
18 *29:A2 *21:13 8.727e-07
19 *32:B1 *18:12 2.39679e-06
20 *32:B1 *18:24 2.81847e-05
21 *34:A4 count[1] 2.75346e-06
22 *34:A4 *41:CK 3.19164e-06
23 *34:A4 *18:24 2.75346e-06
24 *34:A4 *18:34 0.000159414
25 *17:8 *29:A1 2.91282e-05
26 *17:21 *21:13 3.05637e-06
27 *17:21 *21:35 6.86509e-07
28 *17:21 *25:13 0
29 *17:33 *18:24 3.76815e-06
30 *17:33 *21:35 1.48534e-05
31 *17:35 *41:CK 5.10662e-06
32 *17:35 *18:24 3.10375e-05
33 *28:A *29:A2 6.38328e-07
34 *28:A *17:8 0
35 *30:B *29:A2 1.81144e-05
36 *30:C2 *29:A2 1.35664e-06
37 *33:A2 *32:B1 8.71426e-06
38 *33:A2 *17:35 3.4682e-06
39 *33:A3 *32:B1 6.38328e-07
40 *37:A2 *34:A4 1.28019e-05
41 *39:D *29:A2 0
42 *41:D *34:A4 0.000111576
43 *16:32 *17:21 3.97498e-06
44 *16:32 *17:33 1.61966e-05
*RES
1 *39:Q *17:8 16.25 
2 *17:8 *29:A2 15.0357 
3 *17:8 *17:21 4.32143 
4 *17:21 *17:23 5 
5 *17:23 count[0] 45.25 
6 *17:21 *17:33 21.5357 
7 *17:33 *17:35 3.25 
8 *17:35 *34:A4 22.1071 
9 *17:35 *31:A3 5 
10 *17:33 *32:B1 8.92857 
*END

*D_NET *18 0.00157811
*CONN
*P count[1] O
*I *32:A I *D AOI21_X1
*I *31:A2 I *D AND3_X1
*I *34:A3 I *D AND4_X1
*I *40:Q O *D DFF_X1
*CAP
1 count[1] 0.000247092
2 *32:A 0
3 *31:A2 0
4 *34:A3 0
5 *40:Q 0.000102658
6 *18:34 0.000346643
7 *18:24 0.000154027
8 *18:12 0.000157134
9 count[1] count[2] 0.000106006
10 count[1] *33:A1 1.10993e-06
11 count[1] *19:16 8.43215e-07
12 count[1] *22:9 5.7349e-07
13 *18:12 *40:CK 2.13573e-06
14 *18:12 *27:8 1.61965e-05
15 *18:24 *31:A1 2.75346e-06
16 *18:24 *32:B2 3.31381e-05
17 *18:34 *31:A1 5.85723e-06
18 *18:34 *34:A2 4.31182e-05
19 *18:34 *19:16 3.3259e-05
20 *32:B1 *18:12 2.39679e-06
21 *32:B1 *18:24 2.81847e-05
22 *33:A2 *18:12 1.53342e-05
23 *33:A3 *18:12 9.14865e-06
24 *33:A3 *18:24 8.66302e-07
25 *34:A4 count[1] 2.75346e-06
26 *34:A4 *18:24 2.75346e-06
27 *34:A4 *18:34 0.000159414
28 *38:A2 count[1] 6.48216e-07
29 *38:A3 count[1] 5.86275e-06
30 *41:D count[1] 4.31143e-05
31 *9:12 count[1] 2.02836e-05
32 *17:33 *18:24 3.76815e-06
33 *17:35 *18:24 3.10375e-05
*RES
1 *40:Q *18:12 26.4643 
2 *18:12 *18:24 18.5357 
3 *18:24 *18:34 17.1071 
4 *18:34 count[1] 40.7857 
5 *18:34 *34:A3 5 
6 *18:24 *31:A2 5 
7 *18:12 *32:A 5 
*END

*D_NET *19 0.00107729
*CONN
*P count[2] O
*I *37:A1 I *D NOR2_X1
*I *34:A1 I *D AND4_X1
*I *41:Q O *D DFF_X1
*CAP
1 count[2] 0.000237201
2 *37:A1 0
3 *34:A1 0
4 *41:Q 0.00010195
5 *19:16 0.000316894
6 *19:10 0.000181642
7 count[2] *34:A2 2.39679e-06
8 *19:16 *34:A2 4.77061e-05
9 count[1] count[2] 0.000106006
10 count[1] *19:16 8.43215e-07
11 *38:A3 count[2] 4.93896e-05
12 *18:34 *19:16 3.3259e-05
*RES
1 *41:Q *19:10 20.6071 
2 *19:10 *19:16 14.0714 
3 *19:16 count[2] 30.2857 
4 *19:16 *34:A1 5 
5 *19:10 *37:A1 10 
*END

*D_NET *20 0.000970824
*CONN
*P count[3] O
*I *35:A I *D XNOR2_X1
*I *42:Q O *D DFF_X1
*CAP
1 count[3] 0.000299911
2 *35:A 0
3 *42:Q 4.14974e-05
4 *20:18 0.000383563
5 *20:6 0.000125149
6 count[3] *22:5 0
7 count[3] *22:43 0
8 *20:6 *30:A 0
9 *20:6 *21:11 5.04378e-06
10 *20:6 *22:43 0
11 *20:18 *22:43 7.64917e-05
12 *35:B *20:6 1.85634e-05
13 *35:B *20:18 1.32348e-05
14 *36:A2 *20:6 2.43548e-06
15 *36:A2 *20:18 4.93355e-06
*RES
1 *42:Q *20:6 9.75 
2 *20:6 *20:18 20.6429 
3 *20:18 count[3] 30.25 
4 *20:6 *35:A 5 
*END

*D_NET *21 0.00213675
*CONN
*P en I
*I *31:A1 I *D AND3_X1
*I *32:B2 I *D AOI21_X1
*I *34:A2 I *D AND4_X1
*I *29:A1 I *D NOR2_X1
*I *30:C1 I *D AOI211_X1
*CAP
1 en 0.000307235
2 *31:A1 9.04337e-06
3 *32:B2 4.64271e-05
4 *34:A2 0.000137839
5 *29:A1 3.86774e-05
6 *30:C1 3.9247e-05
7 *21:50 6.41836e-05
8 *21:35 0.000274548
9 *21:13 0.00012148
10 *21:11 0.000478786
11 *29:A1 *30:A 2.16072e-07
12 *30:C1 *42:CK 1.52083e-06
13 *21:11 *30:A 0
14 count[0] *29:A1 0
15 count[0] *21:11 0.000263018
16 count[2] *34:A2 2.39679e-06
17 *29:A2 *29:A1 4.87096e-06
18 *29:A2 *30:C1 1.62643e-06
19 *29:A2 *21:13 8.727e-07
20 *30:B *29:A1 4.05153e-05
21 *30:C2 *30:C1 1.88334e-06
22 *35:B *34:A2 0
23 *35:B *21:11 9.45221e-05
24 *36:A2 *21:11 1.87418e-05
25 *38:A3 *34:A2 1.52083e-06
26 *16:28 *21:11 2.23415e-06
27 *17:8 *29:A1 2.91282e-05
28 *17:21 *21:13 3.05637e-06
29 *17:21 *21:35 6.86509e-07
30 *17:33 *21:35 1.48534e-05
31 *18:24 *31:A1 2.75346e-06
32 *18:24 *32:B2 3.31381e-05
33 *18:34 *31:A1 5.85723e-06
34 *18:34 *34:A2 4.31182e-05
35 *19:16 *34:A2 4.77061e-05
36 *20:6 *21:11 5.04378e-06
*RES
1 en *21:11 48.4286 
2 *21:11 *21:13 4.32143 
3 *21:13 *30:C1 13.6429 
4 *21:13 *29:A1 15.75 
5 *21:11 *21:35 19.5 
6 *21:35 *34:A2 31.3571 
7 *21:35 *21:50 0.928572 
8 *21:50 *32:B2 10.75 
9 *21:50 *31:A1 6.42857 
*END

*D_NET *22 0.00246241
*CONN
*P rst I
*I *30:A I *D AOI211_X1
*I *36:A1 I *D NOR2_X1
*I *33:A1 I *D NOR3_X1
*I *38:A1 I *D NOR3_X1
*CAP
1 rst 0.000169919
2 *30:A 9.29234e-05
3 *36:A1 0
4 *33:A1 0.000438139
5 *38:A1 0
6 *22:43 0.000255638
7 *22:9 0.000538847
8 *22:5 0.000433341
9 *30:A *42:CK 1.58933e-05
10 *33:A1 *25:53 0
11 count[0] *22:5 0.000106568
12 count[0] *22:43 3.22582e-05
13 count[1] *33:A1 1.10993e-06
14 count[1] *22:9 5.7349e-07
15 count[3] *22:5 0
16 count[3] *22:43 0
17 *29:A1 *30:A 2.16072e-07
18 *30:B *30:A 2.39679e-06
19 *35:B *22:9 0.000274221
20 *35:B *22:43 0
21 *36:A2 *22:43 1.30998e-05
22 *42:D *30:A 1.07733e-05
23 *9:12 *22:9 0
24 *20:6 *30:A 0
25 *20:6 *22:43 0
26 *20:18 *22:43 7.64917e-05
27 *21:11 *30:A 0
*RES
1 rst *22:5 22.25 
2 *22:5 *22:9 20.1786 
3 *22:9 *38:A1 10 
4 *22:9 *33:A1 36.1914 
5 *22:5 *22:43 28.8929 
6 *22:43 *36:A1 5 
7 *22:43 *30:A 15.25 
*END
