*SPEF "ieee 1481-1999"
*DESIGN "counter8"
*DATE "00:37:39 Sunday July 26, 2026"
*VENDOR "The OpenROAD Project"
*PROGRAM "OpenROAD"
*VERSION "bazel-nostamp"
*DESIGN_FLOW "NAME_SCOPE LOCAL" "PIN_CAP NONE"
*DIVIDER /
*DELIMITER :
*BUS_DELIMITER []
*T_UNIT 1 NS
*C_UNIT 1 PF
*R_UNIT 1 OHM
*L_UNIT 1 HENRY

*NAME_MAP
*1 _00_
*2 _01_
*3 _02_
*4 _03_
*5 _04_
*6 _05_
*7 _06_
*8 _07_
*9 _08_
*10 _09_
*11 _10_
*12 _11_
*13 _12_
*14 _13_
*15 _14_
*16 _15_
*17 _16_[0]
*18 _17_
*19 _18_
*20 _19_
*21 _20_
*22 _21_
*23 _22_
*24 _23_
*25 clk
*38 clknet_0_clk
*39 clknet_1_0__leaf_clk
*40 clknet_1_1__leaf_clk
*26 count[0]
*27 count[1]
*28 count[2]
*29 count[3]
*30 count[4]
*31 count[5]
*32 count[6]
*33 count[7]
*34 en
*41 net1
*42 net2
*43 net3
*44 net4
*45 net5
*46 net6
*35 rst_n
*128 FILLER_0_1
*132 FILLER_0_129
*133 FILLER_0_161
*134 FILLER_0_177
*135 FILLER_0_181
*129 FILLER_0_33
*130 FILLER_0_65
*131 FILLER_0_97
*216 FILLER_10_1
*223 FILLER_10_101
*224 FILLER_10_117
*225 FILLER_10_125
*226 FILLER_10_129
*218 FILLER_10_13
*227 FILLER_10_131
*228 FILLER_10_152
*229 FILLER_10_160
*230 FILLER_10_167
*231 FILLER_10_175
*232 FILLER_10_180
*219 FILLER_10_35
*220 FILLER_10_67
*221 FILLER_10_83
*217 FILLER_10_9
*222 FILLER_10_91
*233 FILLER_11_1
*235 FILLER_11_13
*240 FILLER_11_130
*241 FILLER_11_162
*242 FILLER_11_178
*236 FILLER_11_20
*237 FILLER_11_34
*238 FILLER_11_66
*234 FILLER_11_9
*239 FILLER_11_98
*243 FILLER_12_1
*254 FILLER_12_100
*255 FILLER_12_116
*256 FILLER_12_120
*245 FILLER_12_13
*257 FILLER_12_136
*258 FILLER_12_140
*259 FILLER_12_145
*260 FILLER_12_177
*246 FILLER_12_18
*261 FILLER_12_181
*247 FILLER_12_50
*248 FILLER_12_66
*249 FILLER_12_70
*250 FILLER_12_72
*251 FILLER_12_76
*244 FILLER_12_9
*252 FILLER_12_92
*253 FILLER_12_96
*262 FILLER_13_1
*271 FILLER_13_127
*272 FILLER_13_143
*273 FILLER_13_151
*274 FILLER_13_153
*264 FILLER_13_16
*275 FILLER_13_160
*276 FILLER_13_176
*277 FILLER_13_180
*265 FILLER_13_24
*266 FILLER_13_35
*267 FILLER_13_51
*268 FILLER_13_55
*269 FILLER_13_63
*263 FILLER_13_9
*270 FILLER_13_95
*278 FILLER_14_1
*286 FILLER_14_109
*287 FILLER_14_117
*288 FILLER_14_121
*289 FILLER_14_129
*290 FILLER_14_145
*291 FILLER_14_153
*292 FILLER_14_160
*293 FILLER_14_176
*294 FILLER_14_180
*280 FILLER_14_19
*281 FILLER_14_23
*282 FILLER_14_44
*283 FILLER_14_76
*284 FILLER_14_84
*279 FILLER_14_9
*285 FILLER_14_93
*295 FILLER_15_1
*297 FILLER_15_13
*301 FILLER_15_130
*302 FILLER_15_146
*303 FILLER_15_154
*304 FILLER_15_158
*305 FILLER_15_162
*306 FILLER_15_178
*298 FILLER_15_34
*299 FILLER_15_66
*296 FILLER_15_9
*300 FILLER_15_98
*307 FILLER_16_1
*311 FILLER_16_129
*312 FILLER_16_145
*313 FILLER_16_149
*314 FILLER_16_171
*315 FILLER_16_179
*316 FILLER_16_181
*308 FILLER_16_33
*309 FILLER_16_65
*310 FILLER_16_97
*317 FILLER_17_1
*321 FILLER_17_129
*322 FILLER_17_145
*323 FILLER_17_153
*324 FILLER_17_157
*325 FILLER_17_164
*326 FILLER_17_180
*318 FILLER_17_33
*319 FILLER_17_65
*320 FILLER_17_97
*327 FILLER_18_1
*331 FILLER_18_129
*332 FILLER_18_145
*333 FILLER_18_153
*334 FILLER_18_174
*328 FILLER_18_33
*329 FILLER_18_65
*330 FILLER_18_97
*335 FILLER_19_1
*339 FILLER_19_129
*340 FILLER_19_161
*341 FILLER_19_177
*342 FILLER_19_181
*336 FILLER_19_33
*337 FILLER_19_65
*338 FILLER_19_97
*136 FILLER_1_1
*140 FILLER_1_129
*141 FILLER_1_161
*142 FILLER_1_177
*143 FILLER_1_181
*137 FILLER_1_33
*138 FILLER_1_65
*139 FILLER_1_97
*343 FILLER_20_1
*347 FILLER_20_129
*348 FILLER_20_161
*349 FILLER_20_177
*350 FILLER_20_181
*344 FILLER_20_33
*345 FILLER_20_65
*346 FILLER_20_97
*351 FILLER_21_1
*355 FILLER_21_129
*356 FILLER_21_161
*357 FILLER_21_177
*358 FILLER_21_181
*352 FILLER_21_33
*353 FILLER_21_65
*354 FILLER_21_97
*359 FILLER_22_1
*363 FILLER_22_129
*364 FILLER_22_161
*365 FILLER_22_177
*366 FILLER_22_181
*360 FILLER_22_33
*361 FILLER_22_65
*362 FILLER_22_97
*367 FILLER_23_1
*371 FILLER_23_129
*372 FILLER_23_161
*373 FILLER_23_177
*374 FILLER_23_181
*368 FILLER_23_33
*369 FILLER_23_65
*370 FILLER_23_97
*144 FILLER_2_1
*148 FILLER_2_129
*149 FILLER_2_161
*150 FILLER_2_177
*151 FILLER_2_181
*145 FILLER_2_33
*146 FILLER_2_65
*147 FILLER_2_97
*152 FILLER_3_1
*156 FILLER_3_129
*157 FILLER_3_161
*158 FILLER_3_177
*159 FILLER_3_181
*153 FILLER_3_33
*154 FILLER_3_65
*155 FILLER_3_97
*160 FILLER_4_1
*164 FILLER_4_129
*165 FILLER_4_161
*166 FILLER_4_177
*167 FILLER_4_181
*161 FILLER_4_33
*162 FILLER_4_65
*163 FILLER_4_97
*168 FILLER_5_1
*172 FILLER_5_129
*173 FILLER_5_161
*174 FILLER_5_177
*175 FILLER_5_181
*169 FILLER_5_33
*170 FILLER_5_65
*171 FILLER_5_97
*176 FILLER_6_1
*180 FILLER_6_129
*181 FILLER_6_161
*182 FILLER_6_177
*183 FILLER_6_181
*177 FILLER_6_33
*178 FILLER_6_65
*179 FILLER_6_97
*184 FILLER_7_1
*188 FILLER_7_129
*189 FILLER_7_161
*190 FILLER_7_177
*191 FILLER_7_181
*185 FILLER_7_33
*186 FILLER_7_65
*187 FILLER_7_97
*192 FILLER_8_1
*196 FILLER_8_129
*197 FILLER_8_133
*198 FILLER_8_141
*199 FILLER_8_149
*200 FILLER_8_155
*201 FILLER_8_171
*202 FILLER_8_179
*203 FILLER_8_181
*193 FILLER_8_33
*194 FILLER_8_65
*195 FILLER_8_97
*204 FILLER_9_1
*207 FILLER_9_117
*208 FILLER_9_133
*209 FILLER_9_137
*210 FILLER_9_145
*211 FILLER_9_147
*212 FILLER_9_152
*213 FILLER_9_156
*214 FILLER_9_177
*215 FILLER_9_181
*205 FILLER_9_33
*206 FILLER_9_65
*95 PHY_EDGE_ROW_0_Left_24
*71 PHY_EDGE_ROW_0_Right_0
*105 PHY_EDGE_ROW_10_Left_34
*81 PHY_EDGE_ROW_10_Right_10
*106 PHY_EDGE_ROW_11_Left_35
*82 PHY_EDGE_ROW_11_Right_11
*107 PHY_EDGE_ROW_12_Left_36
*83 PHY_EDGE_ROW_12_Right_12
*108 PHY_EDGE_ROW_13_Left_37
*84 PHY_EDGE_ROW_13_Right_13
*109 PHY_EDGE_ROW_14_Left_38
*85 PHY_EDGE_ROW_14_Right_14
*110 PHY_EDGE_ROW_15_Left_39
*86 PHY_EDGE_ROW_15_Right_15
*111 PHY_EDGE_ROW_16_Left_40
*87 PHY_EDGE_ROW_16_Right_16
*112 PHY_EDGE_ROW_17_Left_41
*88 PHY_EDGE_ROW_17_Right_17
*113 PHY_EDGE_ROW_18_Left_42
*89 PHY_EDGE_ROW_18_Right_18
*114 PHY_EDGE_ROW_19_Left_43
*90 PHY_EDGE_ROW_19_Right_19
*96 PHY_EDGE_ROW_1_Left_25
*72 PHY_EDGE_ROW_1_Right_1
*115 PHY_EDGE_ROW_20_Left_44
*91 PHY_EDGE_ROW_20_Right_20
*116 PHY_EDGE_ROW_21_Left_45
*92 PHY_EDGE_ROW_21_Right_21
*117 PHY_EDGE_ROW_22_Left_46
*93 PHY_EDGE_ROW_22_Right_22
*118 PHY_EDGE_ROW_23_Left_47
*94 PHY_EDGE_ROW_23_Right_23
*97 PHY_EDGE_ROW_2_Left_26
*73 PHY_EDGE_ROW_2_Right_2
*98 PHY_EDGE_ROW_3_Left_27
*74 PHY_EDGE_ROW_3_Right_3
*99 PHY_EDGE_ROW_4_Left_28
*75 PHY_EDGE_ROW_4_Right_4
*100 PHY_EDGE_ROW_5_Left_29
*76 PHY_EDGE_ROW_5_Right_5
*101 PHY_EDGE_ROW_6_Left_30
*77 PHY_EDGE_ROW_6_Right_6
*102 PHY_EDGE_ROW_7_Left_31
*78 PHY_EDGE_ROW_7_Right_7
*103 PHY_EDGE_ROW_8_Left_32
*79 PHY_EDGE_ROW_8_Right_8
*104 PHY_EDGE_ROW_9_Left_33
*80 PHY_EDGE_ROW_9_Right_9
*47 _24_
*48 _25_
*49 _26_
*50 _27_
*51 _28_
*52 _29_
*53 _30_
*54 _31_
*55 _32_
*56 _33_
*57 _34_
*58 _35_
*59 _36_
*60 _37_
*61 _38_
*62 _39_
*63 _40_
*64 _41_
*65 _42_
*66 _43_
*67 _44_
*68 _45_
*69 _46_
*70 _47_
*119 clkbuf_0_clk
*120 clkbuf_1_0__f_clk
*121 clkbuf_1_1__f_clk
*122 hold1
*123 hold2
*124 hold3
*125 hold4
*126 hold5
*127 hold6

*PORTS
clk I
count[0] O
count[1] O
count[2] O
count[3] O
count[4] O
count[5] O
count[6] O
count[7] O
en I
rst_n I

*D_NET *1 0.000377165
*CONN
*I *69:D I *D DFFR_X1
*I *55:ZN O *D XNOR2_X1
*CAP
1 *69:D 0.000137822
2 *55:ZN 0.000137822
3 *69:D *54:A1 3.58094e-06
4 *69:D *54:A2 2.29995e-05
5 *69:D *55:A 5.01004e-05
6 *69:D *62:B 0
7 *69:D *70:CK 7.72792e-06
8 *69:D *15:8 0
9 *69:D *40:38 1.7111e-05
*RES
1 *55:ZN *69:D 26.9643 
*END

*D_NET *2 9.94736e-05
*CONN
*I *68:D I *D DFFR_X1
*I *56:ZN O *D XNOR2_X1
*CAP
1 *68:D 4.31045e-05
2 *56:ZN 4.31045e-05
3 *68:D *56:A 0
4 *68:D *68:RN 0
5 *68:D *68:CK 1.32645e-05
*RES
1 *56:ZN *68:D 14.6786 
*END

*D_NET *3 0.000259713
*CONN
*I *67:D I *D DFFR_X1
*I *57:ZN O *D XNOR2_X1
*CAP
1 *67:D 9.29252e-05
2 *57:ZN 9.29252e-05
3 *67:D *51:A2 1.28122e-06
4 *67:D *53:A4 0
5 *67:D *57:B 1.75939e-05
6 *67:D *66:RN 9.52324e-06
7 *67:D *68:CK 4.32298e-05
8 *67:D *126:A 2.23415e-06
9 *67:D *12:61 0
10 *67:D *40:14 0
*RES
1 *57:ZN *67:D 30.5357 
*END

*D_NET *4 0.000112442
*CONN
*I *66:D I *D DFFR_X1
*I *58:Z O *D XOR2_X1
*CAP
1 *66:D 3.40626e-05
2 *58:Z 3.40626e-05
3 *66:D *58:A 1.57087e-05
4 *66:D *12:46 2.86077e-05
*RES
1 *58:Z *66:D 14.6786 
*END

*D_NET *5 8.83657e-05
*CONN
*I *65:D I *D DFFR_X1
*I *59:ZN O *D XNOR2_X1
*CAP
1 *65:D 4.40748e-05
2 *59:ZN 4.40748e-05
3 *65:D *59:A 2.16072e-07
4 *65:D *65:CK 0
*RES
1 *59:ZN *65:D 14.25 
*END

*D_NET *6 9.94548e-05
*CONN
*I *64:D I *D DFFR_X1
*I *60:ZN O *D XNOR2_X1
*CAP
1 *64:D 3.95265e-05
2 *60:ZN 3.95265e-05
3 *64:D count[0] 7.72537e-06
4 *64:D *64:RN 0
5 *64:D *64:CK 1.24719e-05
6 *64:D *27:20 2.04466e-07
*RES
1 *60:ZN *64:D 14.25 
*END

*D_NET *7 0.000228748
*CONN
*I *63:D I *D DFFR_X1
*I *61:Z O *D MUX2_X1
*CAP
1 *63:D 7.10935e-05
2 *61:Z 7.10935e-05
3 *63:D *50:A4 1.33704e-05
4 *63:D *61:B 2.89018e-05
5 *63:D *64:RN 5.10087e-06
6 *63:D *26:12 0
7 *63:D *26:31 0
8 *63:D *34:25 6.32202e-06
9 *63:D *43:25 3.28663e-05
*RES
1 *61:Z *63:D 28.25 
*END

*D_NET *8 0.00012342
*CONN
*I *70:D I *D DFFR_X1
*I *62:Z O *D XOR2_X1
*CAP
1 *70:D 5.81141e-05
2 *62:Z 5.81141e-05
3 *70:D *70:CK 0
4 *70:D *43:77 7.19234e-06
*RES
1 *62:Z *70:D 16.2143 
*END

*D_NET *9 0.00011596
*CONN
*I *54:A1 I *D NOR2_X1
*I *47:ZN O *D INV_X1
*CAP
1 *54:A1 4.1726e-05
2 *47:ZN 4.1726e-05
3 *54:A1 *62:B 2.03022e-05
4 *54:A1 *43:81 8.62472e-06
5 *69:D *54:A1 3.58094e-06
*RES
1 *47:ZN *54:A1 15.3571 
*END

*D_NET *10 0.000135686
*CONN
*I *60:B I *D XNOR2_X1
*I *48:ZN O *D NAND2_X1
*CAP
1 *60:B 2.18727e-05
2 *48:ZN 2.18727e-05
3 *60:B count[0] 4.45934e-05
4 *60:B *49:A2 2.86077e-05
5 *60:B *27:20 1.87392e-05
*RES
1 *48:ZN *60:B 14.25 
*END

*D_NET *11 0.000113475
*CONN
*I *59:B I *D XNOR2_X1
*I *49:ZN O *D NAND3_X1
*CAP
1 *59:B 4.71002e-05
2 *49:ZN 4.71002e-05
3 *59:B *48:A1 0
4 *59:B *59:A 1.92742e-05
5 *59:B *65:CK 0
*RES
1 *49:ZN *59:B 15.1786 
*END

*D_NET *12 0.00437419
*CONN
*I *52:A3 I *D NAND3_X1
*I *53:A4 I *D NAND4_X1
*I *51:A2 I *D NAND2_X1
*I *58:B I *D XOR2_X1
*I *50:ZN O *D AND4_X1
*CAP
1 *52:A3 0
2 *53:A4 6.08937e-05
3 *51:A2 1.32197e-05
4 *58:B 0.000215644
5 *50:ZN 0.000123295
6 *12:61 0.000129385
7 *12:46 0.000297355
8 *12:28 0.000407976
9 *12:26 0.000587556
10 *12:18 0.000518873
11 *12:10 0.000462588
12 *53:A4 count[4] 6.38328e-07
13 *53:A4 *30:12 4.95679e-05
14 *53:A4 *30:29 1.59582e-06
15 *12:10 *65:RN 1.88334e-06
16 *12:10 *28:10 8.72084e-07
17 *12:10 *43:10 0.000137348
18 *12:18 *39:12 8.24336e-05
19 *12:18 *39:51 0.000359296
20 *12:26 *39:55 0.000457729
21 *12:26 *39:57 9.26023e-08
22 *12:28 *39:57 0.000219369
23 *12:46 *58:A 2.86475e-06
24 *12:46 *66:RN 0
25 *12:46 *68:CK 8.72084e-07
26 *12:46 *29:10 1.19956e-05
27 *12:46 *29:37 9.25539e-05
28 *12:61 *68:CK 5.64171e-06
29 *12:61 *126:A 1.85755e-05
30 *12:61 *29:37 9.91569e-06
31 *12:61 *29:46 6.15717e-05
32 *12:61 *30:8 1.0303e-05
33 *12:61 *30:12 2.39679e-06
34 *66:D *12:46 2.86077e-05
35 *67:D *51:A2 1.28122e-06
36 *67:D *53:A4 0
37 *67:D *12:61 0
*RES
1 *50:ZN *12:10 33.5714 
2 *12:10 *12:18 49.4286 
3 *12:18 *12:26 32.3214 
4 *12:26 *12:28 49.1429 
5 *12:28 *58:B 5 
6 *58:B *12:46 38 
7 *12:46 *51:A2 11.25 
8 *12:46 *12:61 16 
9 *12:61 *53:A4 12.3571 
10 *12:61 *52:A3 5 
*END

*D_NET *13 9.96691e-05
*CONN
*I *57:B I *D XNOR2_X1
*I *51:ZN O *D NAND2_X1
*CAP
1 *57:B 3.98392e-05
2 *51:ZN 3.98392e-05
3 *57:B *57:A 2.39679e-06
4 *67:D *57:B 1.75939e-05
*RES
1 *51:ZN *57:B 14.3571 
*END

*D_NET *14 0.000204755
*CONN
*I *56:B I *D XNOR2_X1
*I *52:ZN O *D NAND3_X1
*CAP
1 *56:B 6.44386e-05
2 *52:ZN 6.44386e-05
3 *56:B *68:CK 9.2228e-06
4 *56:B *126:A 0
5 *56:B *15:8 4.31719e-05
6 *56:B *30:8 4.06009e-06
7 *56:B *43:83 1.94228e-05
*RES
1 *52:ZN *56:B 28.1429 
*END

*D_NET *15 0.000707308
*CONN
*I *54:A2 I *D NOR2_X1
*I *55:B I *D XNOR2_X1
*I *53:ZN O *D NAND4_X1
*CAP
1 *54:A2 5.05775e-05
2 *55:B 0
3 *53:ZN 0.000226102
4 *15:8 0.00027668
5 *54:A2 *55:A 1.00571e-05
6 *15:8 *53:A1 4.45934e-05
7 *15:8 *55:A 6.72327e-06
8 *15:8 *56:A 1.61801e-05
9 *15:8 *30:8 2.87703e-06
10 *15:8 *30:12 7.34533e-06
11 *56:B *15:8 4.31719e-05
12 *69:D *54:A2 2.29995e-05
13 *69:D *15:8 0
*RES
1 *53:ZN *15:8 30.5357 
2 *15:8 *55:B 5 
3 *15:8 *54:A2 11.6786 
*END

*D_NET *16 0.000325991
*CONN
*I *62:B I *D XOR2_X1
*I *54:ZN O *D NOR2_X1
*CAP
1 *62:B 0.000129107
2 *54:ZN 0.000129107
3 *62:B *70:CK 0
4 *62:B *43:77 2.01083e-05
5 *62:B *43:81 2.73656e-05
6 *54:A1 *62:B 2.03022e-05
7 *69:D *62:B 0
*RES
1 *54:ZN *62:B 25.5357 
*END

*D_NET *17 0.000274776
*CONN
*I *61:B I *D MUX2_X1
*I *63:QN O *D DFFR_X1
*CAP
1 *61:B 7.80761e-05
2 *63:QN 7.80761e-05
3 *61:B *50:A4 4.51285e-05
4 *61:B *43:25 4.45934e-05
5 *63:D *61:B 2.89018e-05
*RES
1 *63:QN *61:B 30.6071 
*END

*D_NET *25 0.00209295
*CONN
*P clk I
*I *119:A I *D BUF_X4
*CAP
1 clk 0.00103639
2 *119:A 0
3 *25:30 0.00103639
4 *25:30 count[0] 1.00893e-05
5 *25:30 count[1] 1.00893e-05
6 *25:30 *38:15 0
*RES
1 clk *25:30 42.4979 
2 *25:30 *119:A 10 
*END

*D_NET *38 0.000938423
*CONN
*I *121:A I *D BUF_X4
*I *120:A I *D BUF_X4
*I *119:Z O *D BUF_X4
*CAP
1 *121:A 0
2 *120:A 0
3 *119:Z 0
4 *38:35 0.000217194
5 *38:26 0.000217194
6 *38:15 0.000226609
7 *38:6 0.000252017
8 *38:4 2.54082e-05
9 *38:6 *39:57 0
10 *38:15 *39:57 0
11 *25:30 *38:15 0
*RES
1 *119:Z *38:4 5 
2 *38:4 *38:6 2.25 
3 *38:6 *38:15 29.3929 
4 *38:15 *120:A 10 
5 *38:4 *38:26 5 
6 *38:26 *38:35 24.1429 
7 *38:35 *121:A 10 
*END

*D_NET *39 0.00454628
*CONN
*I *66:CK I *D DFFR_X1
*I *64:CK I *D DFFR_X1
*I *63:CK I *D DFFR_X1
*I *65:CK I *D DFFR_X1
*I *120:Z O *D BUF_X4
*CAP
1 *66:CK 1.82115e-05
2 *64:CK 0.00010247
3 *63:CK 0
4 *65:CK 0.000141886
5 *120:Z 0
6 *39:57 0.000474122
7 *39:55 0.000612053
8 *39:51 0.000410599
9 *39:27 0.000202988
10 *39:12 0.000462016
11 *39:4 0.000474068
12 *64:CK *64:RN 1.93661e-06
13 *65:CK *65:RN 6.49724e-05
14 *39:12 *65:RN 1.43544e-05
15 *39:12 *43:10 8.17906e-05
16 count[0] *64:CK 1.72405e-05
17 count[0] *39:27 0
18 *49:A1 *39:27 0
19 *50:A1 *65:CK 9.62051e-07
20 *50:A2 *64:CK 0
21 *58:A *39:57 5.01029e-05
22 *59:A *65:CK 0
23 *59:B *65:CK 0
24 *61:S *64:CK 4.26314e-06
25 *61:S *39:27 9.31049e-06
26 *64:D *64:CK 1.24719e-05
27 *65:D *65:CK 0
28 *12:18 *39:12 8.24336e-05
29 *12:18 *39:51 0.000359296
30 *12:26 *39:55 0.000457729
31 *12:26 *39:57 9.26023e-08
32 *12:28 *39:57 0.000219369
33 *26:12 *39:12 0.000183258
34 *26:25 *65:CK 3.19164e-07
35 *26:25 *39:27 1.27757e-05
36 *27:10 *64:CK 2.9073e-05
37 *27:20 *64:CK 1.72693e-05
38 *28:12 *65:CK 0
39 *29:10 *66:CK 2.61812e-06
40 *34:25 *64:CK 2.62229e-05
41 *38:6 *39:57 0
42 *38:15 *39:57 0
*RES
1 *120:Z *39:4 5 
2 *39:4 *39:12 41.0714 
3 *39:12 *65:CK 31.1071 
4 *39:12 *39:27 10.75 
5 *39:27 *63:CK 5 
6 *39:27 *64:CK 29.0357 
7 *39:4 *39:51 39.25 
8 *39:51 *39:55 30.3572 
9 *39:55 *39:57 54.75 
10 *39:57 *66:CK 16.6071 
*END

*D_NET *40 0.00175959
*CONN
*I *69:CK I *D DFFR_X1
*I *70:CK I *D DFFR_X1
*I *67:CK I *D DFFR_X1
*I *68:CK I *D DFFR_X1
*I *121:Z O *D BUF_X4
*CAP
1 *69:CK 0
2 *70:CK 0.000129591
3 *67:CK 0
4 *68:CK 0.000155405
5 *121:Z 4.9268e-05
6 *40:38 0.000329894
7 *40:14 0.000360391
8 *40:10 0.000454557
9 *68:CK *66:RN 1.06167e-05
10 *68:CK *126:A 7.44846e-05
11 *68:CK *43:83 2.48106e-05
12 *70:CK *43:77 0
13 *40:14 *126:A 0
14 *55:A *70:CK 0
15 *55:A *40:38 6.66237e-05
16 *56:A *68:CK 6.87788e-06
17 *56:B *68:CK 9.2228e-06
18 *62:B *70:CK 0
19 *67:D *68:CK 4.32298e-05
20 *67:D *40:14 0
21 *68:D *68:CK 1.32645e-05
22 *69:D *70:CK 7.72792e-06
23 *69:D *40:38 1.7111e-05
24 *70:D *70:CK 0
25 *12:46 *68:CK 8.72084e-07
26 *12:61 *68:CK 5.64171e-06
*RES
1 *121:Z *40:10 15.0714 
2 *40:10 *40:14 25.25 
3 *40:14 *68:CK 35.9643 
4 *40:14 *67:CK 5 
5 *40:10 *40:38 28.3929 
6 *40:38 *70:CK 27.5357 
7 *40:38 *69:CK 5 
*END

*D_NET *26 0.00211917
*CONN
*P count[0] O
*I *61:A I *D MUX2_X1
*I *49:A1 I *D NAND3_X1
*I *48:A1 I *D NAND2_X1
*I *50:A1 I *D AND4_X1
*I *63:Q O *D DFFR_X1
*CAP
1 count[0] 0.000212314
2 *61:A 0
3 *49:A1 4.62212e-05
4 *48:A1 8.71307e-06
5 *50:A1 3.17171e-05
6 *63:Q 0.000142364
7 *26:31 0.000357732
8 *26:25 0.000138437
9 *26:12 0.000222033
10 count[0] count[1] 0.000112801
11 count[0] *49:A2 6.0887e-06
12 count[0] *64:CK 1.72405e-05
13 count[0] *27:10 1.61249e-06
14 count[0] *27:20 4.12459e-06
15 count[0] *34:5 0.000200512
16 count[0] *34:25 1.39047e-05
17 count[0] *39:27 0
18 *48:A1 *49:A2 0
19 *49:A1 *49:A2 3.38756e-05
20 *49:A1 *39:27 0
21 *50:A1 *50:A2 3.44214e-05
22 *50:A1 *65:RN 8.25439e-06
23 *50:A1 *65:CK 9.62051e-07
24 *26:12 *65:RN 5.41015e-05
25 *26:12 *39:12 0.000183258
26 *26:12 *43:10 0.000134194
27 *26:12 *43:25 0
28 *26:25 *50:A2 7.63892e-05
29 *26:25 *61:S 2.39679e-06
30 *26:25 *65:CK 3.19164e-07
31 *26:25 *39:27 1.27757e-05
32 *59:B *48:A1 0
33 *60:B count[0] 4.45934e-05
34 *63:D *26:12 0
35 *63:D *26:31 0
36 *64:D count[0] 7.72537e-06
37 *25:30 count[0] 1.00893e-05
*RES
1 *63:Q *26:12 35.5 
2 *26:12 *50:A1 9.42857 
3 *26:12 *26:25 7.25 
4 *26:25 *26:31 19.0714 
5 *26:31 *48:A1 5.92857 
6 *26:31 *49:A1 10.75 
7 *26:31 count[0] 41.2679 
8 *26:25 *61:A 5 
*END

*D_NET *27 0.0017935
*CONN
*P count[1] O
*I *50:A2 I *D AND4_X1
*I *60:A I *D XNOR2_X1
*I *49:A2 I *D NAND3_X1
*I *64:Q O *D DFFR_X1
*CAP
1 count[1] 0.000213332
2 *50:A2 0.000127406
3 *60:A 0
4 *49:A2 6.03612e-05
5 *64:Q 1.79447e-05
6 *27:20 9.57021e-05
7 *27:10 0.000341046
8 *27:8 0.000237724
9 *49:A2 *49:A3 5.7273e-05
10 *49:A2 *34:9 4.51285e-05
11 *50:A2 *50:A4 0.000161959
12 *50:A2 *61:S 2.34865e-05
13 *50:A2 *64:RN 2.83081e-06
14 *50:A2 *64:CK 0
15 *50:A2 *43:25 1.86809e-06
16 *27:8 *64:RN 8.1183e-06
17 *27:10 *64:RN 8.88497e-06
18 *27:10 *64:CK 2.9073e-05
19 *27:10 *34:25 1.15746e-06
20 *27:20 *64:CK 1.72693e-05
21 *27:20 *34:9 1.59858e-05
22 count[0] count[1] 0.000112801
23 count[0] *49:A2 6.0887e-06
24 count[0] *27:10 1.61249e-06
25 count[0] *27:20 4.12459e-06
26 *48:A1 *49:A2 0
27 *49:A1 *49:A2 3.38756e-05
28 *50:A1 *50:A2 3.44214e-05
29 *60:B *49:A2 2.86077e-05
30 *60:B *27:20 1.87392e-05
31 *64:D *27:20 2.04466e-07
32 *25:30 count[1] 1.00893e-05
33 *26:25 *50:A2 7.63892e-05
*RES
1 *64:Q *27:8 12.2857 
2 *27:8 *27:10 11.1071 
3 *27:10 count[1] 28.1607 
4 *27:10 *27:20 9.75 
5 *27:20 *49:A2 15.9286 
6 *27:20 *60:A 5 
7 *27:8 *50:A2 29.9286 
*END

*D_NET *28 0.000929612
*CONN
*P count[2] O
*I *50:A3 I *D AND4_X1
*I *59:A I *D XNOR2_X1
*I *65:Q O *D DFFR_X1
*CAP
1 count[2] 0.000264355
2 *50:A3 1.2935e-05
3 *59:A 1.7356e-05
4 *65:Q 5.45343e-05
5 *28:12 0.000385717
6 *28:10 0.000171475
7 *50:A3 *65:RN 2.87703e-06
8 *59:A *65:CK 0
9 *28:10 *65:RN 0
10 *28:12 *65:RN 0
11 *28:12 *65:CK 0
12 *59:B *59:A 1.92742e-05
13 *65:D *59:A 2.16072e-07
14 *12:10 *28:10 8.72084e-07
*RES
1 *65:Q *28:10 15.2143 
2 *28:10 *28:12 10.4286 
3 *28:12 count[2] 28.8393 
4 *28:12 *59:A 12.25 
5 *28:10 *50:A3 11.5 
*END

*D_NET *29 0.00275942
*CONN
*P count[3] O
*I *53:A1 I *D NAND4_X1
*I *52:A1 I *D NAND3_X1
*I *51:A1 I *D NAND2_X1
*I *58:A I *D XOR2_X1
*I *66:Q O *D DFFR_X1
*CAP
1 count[3] 0.000600153
2 *53:A1 6.22192e-05
3 *52:A1 0
4 *51:A1 0
5 *58:A 5.3213e-05
6 *66:Q 0
7 *29:46 0.000137935
8 *29:37 0.000192633
9 *29:18 0.000779131
10 *29:10 0.000343497
11 *29:4 0.000228223
12 *53:A1 count[4] 8.43215e-07
13 *53:A1 *53:A3 5.56098e-05
14 *53:A1 *56:A 4.97191e-06
15 *53:A1 *126:A 2.90101e-06
16 *53:A1 *30:12 0
17 *53:A1 *30:29 4.9678e-06
18 *58:A *39:57 5.01029e-05
19 *29:10 *66:CK 2.61812e-06
20 *29:37 *66:RN 0
21 *29:46 *57:A 0
22 *29:46 *126:A 1.20127e-06
23 *29:46 *30:29 0
24 *66:D *58:A 1.57087e-05
25 *12:46 *58:A 2.86475e-06
26 *12:46 *29:10 1.19956e-05
27 *12:46 *29:37 9.25539e-05
28 *12:61 *29:37 9.91569e-06
29 *12:61 *29:46 6.15717e-05
30 *15:8 *53:A1 4.45934e-05
*RES
1 *66:Q *29:4 5 
2 *29:4 *29:10 23.1429 
3 *29:10 *29:18 29.0714 
4 *29:18 count[3] 60.75 
5 *29:10 *58:A 12.25 
6 *29:4 *29:37 21.0714 
7 *29:37 *51:A1 10 
8 *29:37 *29:46 9.75 
9 *29:46 *52:A1 10 
10 *29:46 *53:A1 18.7143 
*END

*D_NET *30 0.0013156
*CONN
*P count[4] O
*I *52:A2 I *D NAND3_X1
*I *53:A2 I *D NAND4_X1
*I *57:A I *D XNOR2_X1
*I *67:Q O *D DFFR_X1
*CAP
1 count[4] 0.000336969
2 *52:A2 0
3 *53:A2 0
4 *57:A 0.000107315
5 *67:Q 4.89407e-05
6 *30:29 0.000367528
7 *30:12 0.000171439
8 *30:8 8.25063e-05
9 count[4] *53:A3 9.5257e-06
10 count[4] *125:A 9.80664e-05
11 *30:8 *126:A 0
12 *30:29 *53:A3 6.32202e-06
13 *53:A1 count[4] 8.43215e-07
14 *53:A1 *30:12 0
15 *53:A1 *30:29 4.9678e-06
16 *53:A4 count[4] 6.38328e-07
17 *53:A4 *30:12 4.95679e-05
18 *53:A4 *30:29 1.59582e-06
19 *56:B *30:8 4.06009e-06
20 *57:B *57:A 2.39679e-06
21 *12:61 *30:8 1.0303e-05
22 *12:61 *30:12 2.39679e-06
23 *15:8 *30:8 2.87703e-06
24 *15:8 *30:12 7.34533e-06
25 *29:46 *57:A 0
26 *29:46 *30:29 0
*RES
1 *67:Q *30:8 10.3571 
2 *30:8 *30:12 9.75 
3 *30:12 *57:A 20.8214 
4 *30:12 *30:29 8.53572 
5 *30:29 count[4] 46.2679 
6 *30:29 *53:A2 5 
7 *30:8 *52:A2 5 
*END

*D_NET *31 0.000986685
*CONN
*P count[5] O
*I *56:A I *D XNOR2_X1
*I *53:A3 I *D NAND4_X1
*I *68:Q O *D DFFR_X1
*CAP
1 count[5] 0.000201733
2 *56:A 3.91135e-05
3 *53:A3 6.46972e-05
4 *68:Q 0
5 *31:10 0.000241866
6 *31:6 0.000339788
7 count[5] *123:A 0
8 count[5] *125:A 0
9 *56:A *68:CK 6.87788e-06
10 *31:10 *123:A 0
11 *31:10 *126:A 0
12 count[4] *53:A3 9.5257e-06
13 *53:A1 *53:A3 5.56098e-05
14 *53:A1 *56:A 4.97191e-06
15 *68:D *56:A 0
16 *15:8 *56:A 1.61801e-05
17 *30:29 *53:A3 6.32202e-06
*RES
1 *68:Q *31:6 10 
2 *31:6 *31:10 19.5 
3 *31:10 *53:A3 23.2143 
4 *31:10 *56:A 9.75 
5 *31:6 count[5] 22.7322 
*END

*D_NET *32 0.00118025
*CONN
*P count[6] O
*I *47:A I *D INV_X1
*I *55:A I *D XNOR2_X1
*I *69:Q O *D DFFR_X1
*CAP
1 count[6] 0.000264594
2 *47:A 0
3 *55:A 0.000136611
4 *69:Q 3.42024e-05
5 *32:20 0.000206171
6 *32:6 0.000368356
7 count[6] count[7] 2.8932e-05
8 count[6] *43:81 0
9 *55:A *70:CK 0
10 *55:A *40:38 6.66237e-05
11 *32:6 count[7] 7.87811e-06
12 *32:6 *43:81 0
13 *54:A2 *55:A 1.00571e-05
14 *69:D *55:A 5.01004e-05
15 *15:8 *55:A 6.72327e-06
*RES
1 *69:Q *32:6 8.75 
2 *32:6 count[6] 35.5536 
3 *32:6 *32:20 12.0357 
4 *32:20 *55:A 26.3571 
5 *32:20 *47:A 10 
*END

*D_NET *33 0.000900737
*CONN
*P count[7] O
*I *62:A I *D XOR2_X1
*I *70:Q O *D DFFR_X1
*CAP
1 count[7] 0.000310421
2 *62:A 7.89021e-05
3 *70:Q 4.26408e-05
4 *33:6 0.000431964
5 count[7] *43:77 0
6 count[7] *43:81 0
7 *33:6 *43:77 0
8 count[6] count[7] 2.8932e-05
9 *32:6 count[7] 7.87811e-06
*RES
1 *70:Q *33:6 9.25 
2 *33:6 count[7] 40.0179 
3 *33:6 *62:A 23.3929 
*END

*D_NET *34 0.00173595
*CONN
*P en I
*I *50:A4 I *D AND4_X1
*I *61:S I *D MUX2_X1
*I *48:A2 I *D NAND2_X1
*I *49:A3 I *D NAND3_X1
*CAP
1 en 0.0001918
2 *50:A4 0.000109641
3 *61:S 4.45129e-05
4 *48:A2 0
5 *49:A3 5.0629e-05
6 *34:25 0.000240169
7 *34:9 9.34331e-05
8 *34:5 0.000320619
9 *50:A4 *64:RN 1.48912e-05
10 *50:A4 *43:25 3.75069e-05
11 *61:S *64:CK 4.26314e-06
12 *61:S *39:27 9.31049e-06
13 *34:25 *64:RN 6.32202e-06
14 *34:25 *64:CK 2.62229e-05
15 count[0] *34:5 0.000200512
16 count[0] *34:25 1.39047e-05
17 *49:A2 *49:A3 5.7273e-05
18 *49:A2 *34:9 4.51285e-05
19 *50:A2 *50:A4 0.000161959
20 *50:A2 *61:S 2.34865e-05
21 *61:B *50:A4 4.51285e-05
22 *63:D *50:A4 1.33704e-05
23 *63:D *34:25 6.32202e-06
24 *26:25 *61:S 2.39679e-06
25 *27:10 *34:25 1.15746e-06
26 *27:20 *34:9 1.59858e-05
*RES
1 en *34:5 27.4822 
2 *34:5 *34:9 10.75 
3 *34:9 *49:A3 11.6786 
4 *34:9 *48:A2 5 
5 *34:5 *34:25 10.4286 
6 *34:25 *61:S 15.75 
7 *34:25 *50:A4 28.0357 
*END

*D_NET *41 0.000284563
*CONN
*I *127:A I *D BUF_X1
*I *122:Z O *D BUF_X1
*CAP
1 *127:A 0.000131
2 *122:Z 0.000131
3 *127:A *122:A 1.14365e-05
4 *127:A *124:A 1.11258e-05
*RES
1 *122:Z *127:A 35.1786 
*END

*D_NET *42 0.000617244
*CONN
*I *126:A I *D BUF_X1
*I *123:Z O *D BUF_X1
*CAP
1 *126:A 0.00025535
2 *123:Z 0.00025535
3 *126:A *123:A 7.14654e-06
4 *126:A *43:83 0
5 *53:A1 *126:A 2.90101e-06
6 *56:B *126:A 0
7 *67:D *126:A 2.23415e-06
8 *68:CK *126:A 7.44846e-05
9 *12:61 *126:A 1.85755e-05
10 *29:46 *126:A 1.20127e-06
11 *30:8 *126:A 0
12 *31:10 *126:A 0
13 *40:14 *126:A 0
*RES
1 *123:Z *126:A 48.2857 
*END

*D_NET *43 0.00633963
*CONN
*I *69:RN I *D DFFR_X1
*I *68:RN I *D DFFR_X1
*I *67:RN I *D DFFR_X1
*I *66:RN I *D DFFR_X1
*I *70:RN I *D DFFR_X1
*I *63:RN I *D DFFR_X1
*I *64:RN I *D DFFR_X1
*I *65:RN I *D DFFR_X1
*I *124:Z O *D BUF_X1
*CAP
1 *69:RN 0
2 *68:RN 0.00010214
3 *67:RN 0
4 *66:RN 0.000253477
5 *70:RN 0
6 *63:RN 0
7 *64:RN 6.89152e-05
8 *65:RN 8.26067e-05
9 *124:Z 0.00017535
10 *43:83 0.000395516
11 *43:81 0.000514963
12 *43:77 0.000388886
13 *43:68 0.000286923
14 *43:64 0.000455396
15 *43:58 0.000667386
16 *43:50 0.000976142
17 *43:48 0.000595331
18 *43:25 0.000182592
19 *43:10 0.000371634
20 *68:RN *123:A 1.74638e-05
21 *43:10 *124:A 1.14339e-05
22 *43:83 *123:A 1.11168e-06
23 count[6] *43:81 0
24 count[7] *43:77 0
25 count[7] *43:81 0
26 *50:A1 *65:RN 8.25439e-06
27 *50:A2 *64:RN 2.83081e-06
28 *50:A2 *43:25 1.86809e-06
29 *50:A3 *65:RN 2.87703e-06
30 *50:A4 *64:RN 1.48912e-05
31 *50:A4 *43:25 3.75069e-05
32 *54:A1 *43:81 8.62472e-06
33 *56:B *43:83 1.94228e-05
34 *61:B *43:25 4.45934e-05
35 *62:B *43:77 2.01083e-05
36 *62:B *43:81 2.73656e-05
37 *63:D *64:RN 5.10087e-06
38 *63:D *43:25 3.28663e-05
39 *64:D *64:RN 0
40 *64:CK *64:RN 1.93661e-06
41 *65:CK *65:RN 6.49724e-05
42 *67:D *66:RN 9.52324e-06
43 *68:D *68:RN 0
44 *68:CK *66:RN 1.06167e-05
45 *68:CK *43:83 2.48106e-05
46 *70:D *43:77 7.19234e-06
47 *70:CK *43:77 0
48 *125:A *68:RN 0
49 *126:A *43:83 0
50 *12:10 *65:RN 1.88334e-06
51 *12:10 *43:10 0.000137348
52 *12:46 *66:RN 0
53 *26:12 *65:RN 5.41015e-05
54 *26:12 *43:10 0.000134194
55 *26:12 *43:25 0
56 *27:8 *64:RN 8.1183e-06
57 *27:10 *64:RN 8.88497e-06
58 *28:10 *65:RN 0
59 *28:12 *65:RN 0
60 *29:37 *66:RN 0
61 *32:6 *43:81 0
62 *33:6 *43:77 0
63 *34:25 *64:RN 6.32202e-06
64 *39:12 *65:RN 1.43544e-05
65 *39:12 *43:10 8.17906e-05
*RES
1 *124:Z *43:10 39.5 
2 *43:10 *65:RN 21.25 
3 *43:10 *43:25 19.25 
4 *43:25 *64:RN 23.0714 
5 *43:25 *63:RN 5 
6 *124:Z *43:48 5 
7 *43:48 *43:50 58.75 
8 *43:50 *43:58 48.3214 
9 *43:58 *43:64 38.25 
10 *43:64 *43:68 22.8929 
11 *43:68 *70:RN 5 
12 *43:68 *43:77 13.1786 
13 *43:77 *43:81 33.25 
14 *43:81 *43:83 15.8571 
15 *43:83 *66:RN 38.0357 
16 *43:83 *67:RN 10 
17 *43:81 *68:RN 21.0714 
18 *43:77 *69:RN 5 
*END

*D_NET *44 0.000200072
*CONN
*I *123:A I *D BUF_X1
*I *125:Z O *D BUF_X1
*CAP
1 *123:A 8.71751e-05
2 *125:Z 8.71751e-05
3 count[5] *123:A 0
4 *68:RN *123:A 1.74638e-05
5 *126:A *123:A 7.14654e-06
6 *31:10 *123:A 0
7 *43:83 *123:A 1.11168e-06
*RES
1 *125:Z *123:A 30.4286 
*END

*D_NET *45 0.000373331
*CONN
*I *122:A I *D BUF_X1
*I *126:Z O *D BUF_X1
*CAP
1 *122:A 0.000180947
2 *126:Z 0.000180947
3 *127:A *122:A 1.14365e-05
*RES
1 *126:Z *122:A 39.8214 
*END

*D_NET *46 0.000362112
*CONN
*I *124:A I *D BUF_X1
*I *127:Z O *D BUF_X1
*CAP
1 *124:A 0.000169776
2 *127:Z 0.000169776
3 *127:A *124:A 1.11258e-05
4 *43:10 *124:A 1.14339e-05
*RES
1 *127:Z *124:A 39.1429 
*END

*D_NET *35 0.00062567
*CONN
*P rst_n I
*I *125:A I *D BUF_X1
*CAP
1 rst_n 0.000263802
2 *125:A 0.000263802
3 *125:A *68:RN 0
4 count[4] *125:A 9.80664e-05
5 count[5] *125:A 0
*RES
1 rst_n *125:A 42.3036 
*END
